%chk=1.chk
%NProcShared=2
# AM1 nosymm Force iop(1/10=10,7/29=2) iop(2/12=1)

calculation 1: low-level force

0 1
N -0.0458564349 5.8356571198 0.5324392915 
C 1.6184037924 5.4442791939 2.687079668 
CL 2.4814550877 5.6658668518 4.1758480072 
H -0.8942573667 5.7056779861 -0.0073981094 
H 0.5496150255 6.5240664482 0.0538712516 
H -0.4530671835 6.2815856934 1.3607461452 
H 2.1967711449 4.6684498787 2.1789653301 
H 0.5366299748 5.0844964981 2.7786509991 
H 1.588275671 6.4107694626 2.1795136929 
O-#6--0.834000 -4.5008721352 10.4263324738 9.206744194 
H-#6-0.417000 -3.8075740337 9.7859210968 9.0472364426 
H-#6-0.417000 -4.2593035698 10.8401622772 10.0353708267 
O-#6--0.834000 6.3961567879 4.1873822212 -1.5776103735 
H-#6-0.417000 6.1367974281 4.8480634689 -0.9353756905 
H-#6-0.417000 5.8669586182 3.4201169014 -1.359697938 
O-#6--0.834000 12.6424102783 3.5386731625 3.6517853737 
H-#6-0.417000 11.729010582 3.3183271885 3.4690783024 
H-#6-0.417000 13.0629472733 3.550855875 2.7919993401 
O-#6--0.834000 -2.6754567623 13.8929309845 -5.2485704422 
H-#6-0.417000 -2.29281497 14.5109767914 -4.6258039474 
H-#6-0.417000 -3.6076891422 13.8799467087 -5.0317602158 
H-#6-0.417000 -6.3057470322 11.8305253983 9.2407951355 
H-#6-0.417000 3.9609336853 17.0714645386 -1.081086278 
O-#6--0.834000 -0.6328631639 12.1073198318 -6.619456768 
H-#6-0.417000 -1.2930374146 12.7215356827 -6.2983016968 
H-#6-0.417000 -1.1295540333 11.3252038956 -6.8599267006 
O-#6--0.834000 0.2627678812 9.2853031158 8.6838874817 
H-#6-0.417000 -0.643029809 8.9921007156 8.5849180222 
H-#6-0.417000 0.7882140279 8.5581560135 8.3501281738 
O-#6--0.834000 -0.1286195219 9.2453374863 5.332098484 
H-#6-0.417000 0.7885495424 8.97473526 5.3746099472 
H-#6-0.417000 -0.3160870969 9.5956516266 6.2029418945 
O-#6--0.834000 4.2991528511 2.2448508739 -4.6433300972 
H-#6-0.417000 3.842543602 2.6874845028 -5.3587431908 
H-#6-0.417000 5.1517481804 2.6776497364 -4.5986247063 
O-#6--0.834000 -1.8967194557 7.7409734726 -3.8459603786 
H-#6-0.417000 -2.5224485397 8.4128475189 -4.1166653633 
H-#6-0.417000 -1.0415358543 8.1636075974 -3.9251694679 
O-#6--0.834000 -3.9317662716 3.1342642307 -2.3108384609 
H-#6-0.417000 -4.8224878311 3.0240190029 -1.9781316519 
H-#6-0.417000 -3.3870022297 3.1865410805 -1.5255157948 
O-#6--0.834000 -2.083168745 6.4127764702 11.8315124512 
H-#6-0.417000 -1.8613932133 7.332192421 11.6841278076 
H-#6-0.417000 -1.4231526852 6.1031570435 12.451792717 
O-#6--0.834000 2.5107204914 1.7875791788 6.6484103203 
H-#6-0.417000 1.6698093414 1.6811623573 7.0931305885 
H-#6-0.417000 2.9611163139 2.4695463181 7.1467041969 
O-#6--0.834000 -2.044024229 -1.0606017113 -2.785217762 
H-#6-0.417000 -2.7274060249 -1.6154025793 -3.1612734795 
H-#6-0.417000 -1.2239276171 -1.461353302 -3.0734407902 
H-#6-0.417000 9.8430118561 13.9520349503 -0.659365654 
O-#6--0.834000 4.0122241974 3.9458708763 7.5034189224 
H-#6-0.417000 4.8161931038 3.5259945393 7.8093099594 
H-#6-0.417000 3.4638476372 4.0124554634 8.2851362228 
O-#6--0.834000 -6.2114977837 2.198905468 6.5068626404 
H-#6-0.417000 -5.5272169113 2.7925591469 6.1977219582 
H-#6-0.417000 -5.9075980186 1.328176856 6.250524044 
O-#6--0.834000 0.4293763638 -1.5382239819 8.631234169 
H-#6-0.417000 0.1098724678 -0.6437810659 8.5123977661 
H-#6-0.417000 0.7381777167 -1.5644155741 9.5368776321 
O-#6--0.834000 1.6788204908 -2.094701767 1.3503264189 
H-#6-0.417000 1.1304885149 -1.8375067711 0.6091009974 
H-#6-0.417000 1.4016728401 -2.9876506329 1.5554208755 
O-#6--0.834000 8.5166435242 0.2670737505 3.5211277008 
H-#6-0.417000 7.6254425049 0.3560435474 3.1833741665 
H-#6-0.417000 8.6519126892 1.0525220633 4.0512280464 
O-#6--0.834000 3.7041811943 -5.1079397202 4.104203701 
H-#6-0.417000 4.0736351013 -4.2482042313 4.3056788445 
O-#6--0.834000 3.4435582161 1.8544536829 12.1753168106 
H-#6-0.417000 2.944776535 1.3583739996 12.8244352341 
H-#6-0.417000 3.6818671227 2.6654953957 12.6243743896 
O-#6--0.834000 5.3380408287 1.4816527367 -0.9854550362 
H-#6-0.417000 4.5475254059 2.0207178593 -0.9584994912 
H-#6-0.417000 5.1879501343 0.8715254664 -1.7075698376 
O-#6--0.834000 1.7140525579 11.36992836 9.9922466278 
H-#6-0.417000 0.7771677375 11.5627555847 10.0282554626 
H-#6-0.417000 1.7786799669 10.5975131989 9.4306154251 
O-#6--0.834000 -5.4456577301 13.4016590118 0.4309410453 
H-#6-0.417000 -4.5928735733 13.1608886719 0.7929100394 
H-#6-0.417000 -5.4672021866 14.3572177887 0.482683301 
O-#6--0.834000 -0.7820240259 12.4954357147 -1.7424298525 
H-#6-0.417000 -1.5572283268 11.9375867844 -1.6784402132 
H-#6-0.417000 -1.1219973564 13.3875665665 -1.6734886169 
O-#6--0.834000 9.3843212128 3.3495500088 7.4509449005 
H-#6-0.417000 9.8660640717 2.5230395794 7.4187445641 
H-#6-0.417000 9.81939888 3.9062330723 6.8051557541 
O-#6--0.834000 8.3978633881 7.8384361267 -7.1737446785 
H-#6-0.417000 8.1979999542 7.0234661102 -7.6342997551 
O-#6--0.834000 -2.0960221291 -3.7238790989 2.4594683647 
H-#6-0.417000 -2.4528980255 -3.3893413544 1.6366949081 
H-#6-0.417000 -1.6910219193 -2.9615027905 2.8729765415 
O-#6--0.834000 -0.4569759667 1.0764625072 -8.2859287262 
H-#6-0.417000 -0.2626601756 2.0132303238 -8.3165922165 
H-#6-0.417000 -1.1956832409 1.0042589903 -7.6815028191 
H-#6-0.417000 2.0225365162 4.4800562859 13.2494306564 
O-#6--0.834000 5.9964847565 7.1981801987 -2.9946389198 
H-#6-0.417000 5.7487416267 7.767141819 -3.723430872 
H-#6-0.417000 5.2690095901 6.5813670158 -2.9136850834 
H-#6-0.417000 -0.1028139889 1.9631001949 12.7041244507 
O-#6--0.834000 1.2065764666 11.3016996384 -3.4891867638 
H-#6-0.417000 0.8677100539 11.7026128769 -4.2896056175 
H-#6-0.417000 0.5518937707 11.5075540543 -2.821918726 
O-#6--0.834000 -1.5313549042 -0.4536590874 1.3935871124 
H-#6-0.417000 -1.2064059973 -0.8327594995 2.2102410793 
H-#6-0.417000 -1.2472229004 0.4599144757 1.4233349562 
O-#6--0.834000 5.8034691811 8.1412944794 4.1010904312 
H-#6-0.417000 5.3364443779 8.3242673874 3.2858352661 
H-#6-0.417000 5.6251368523 7.2175865173 4.2777051926 
O-#6--0.834000 -1.9150900841 5.2696537971 -7.1098980904 
H-#6-0.417000 -2.1907167435 5.3758788109 -6.1994147301 
H-#6-0.417000 -2.7276411057 5.1079072952 -7.5893058777 
O-#6--0.834000 -2.6435749531 0.200199157 6.5973963737 
H-#6-0.417000 -2.6394226551 -0.4595138431 7.2909340858 
H-#6-0.417000 -3.5276312828 0.1594269574 6.2326850891 
O-#6--0.834000 10.3814954758 10.685423851 0.0093352264 
H-#6-0.417000 10.7231235504 10.069767952 -0.6391169429 
H-#6-0.417000 11.0185861588 11.3997135162 0.0210643318 
O-#6--0.834000 2.7264223099 3.0248856544 -6.8579530716 
H-#6-0.417000 1.8025106192 3.156979084 -7.0704865456 
H-#6-0.417000 3.0688991547 2.5079851151 -7.5871682167 
O-#6--0.834000 -2.4100952148 17.3384494781 4.1629767418 
H-#6-0.417000 -2.7695624828 16.5339126587 3.7891654968 
O-#6--0.834000 -1.8627327681 2.493691206 -0.2226107866 
H-#6-0.417000 -1.269416213 1.9748866558 -0.7657960057 
H-#6-0.417000 -1.3958563805 2.6030302048 0.6058241725 
O-#6--0.834000 1.3467183113 5.1162619591 -4.757941246 
H-#6-0.417000 0.4283143282 5.3060951233 -4.5662899017 
H-#6-0.417000 1.4823672771 5.4556069374 -5.6426315308 
O-#6--0.834000 -5.2117052078 7.9162254333 3.8680143356 
H-#6-0.417000 -6.0317482948 7.4430251122 4.0088806152 
H-#6-0.417000 -4.577580452 7.2356061935 3.6424565315 
O-#6--0.834000 3.2567629814 13.6620416641 7.2991638184 
H-#6-0.417000 3.288175106 14.2187633514 6.5211486816 
H-#6-0.417000 2.447858572 13.9159917831 7.743478775 
O-#6--0.834000 -2.8340306282 1.5080832243 -4.4239020348 
H-#6-0.417000 -1.899055481 1.6733837128 -4.545270443 
H-#6-0.417000 -3.1511890888 2.2692341805 -3.9378025532 
O-#6--0.834000 -3.2860209942 10.6304244995 12.1859893799 
H-#6-0.417000 -2.5175316334 10.1762590408 11.8404607773 
O-#6--0.834000 7.5101518631 9.6588191986 5.8504676819 
H-#6-0.417000 7.1530923843 9.8795518875 6.7107105255 
H-#6-0.417000 6.8426499367 9.1023855209 5.449151516 
O-#6--0.834000 4.1941103935 5.9642510414 -0.1329634786 
H-#6-0.417000 3.6622014046 5.3551421165 0.3791809082 
H-#6-0.417000 3.7274782658 6.0498571396 -0.9643230438 
O-#6--0.834000 5.7610902786 -2.8753120899 3.3459632397 
H-#6-0.417000 6.1570854187 -2.6476271152 2.5047850609 
H-#6-0.417000 4.9537191391 -2.3621199131 3.3778762817 
O-#6--0.834000 7.5763120651 6.0335960388 -4.9128623009 
H-#6-0.417000 8.4196929932 6.3298926353 -5.2551336288 
H-#6-0.417000 7.4203410149 6.5866127014 -4.1473050117 
O-#6--0.834000 6.3982462883 13.2461652756 -2.6755535603 
H-#6-0.417000 6.6899271011 12.8222103119 -1.868449688 
H-#6-0.417000 6.157251358 14.1328468323 -2.407320261 
O-#6--0.834000 -1.8959687948 4.8327355385 -3.3848230839 
H-#6-0.417000 -2.2688965797 5.7134857178 -3.4227173328 
H-#6-0.417000 -2.6152565479 4.2805447578 -3.078322649 
O-#6--0.834000 2.1583094597 13.8161535263 2.7541415691 
H-#6-0.417000 2.4416093826 13.0450525284 2.262840271 
H-#6-0.417000 2.9214625359 14.0609970093 3.2774784565 
O-#6--0.834000 3.9285800457 9.3919591904 8.841003418 
H-#6-0.417000 3.5067858696 8.63397789 8.4362983704 
H-#6-0.417000 3.9959046841 10.0346078873 8.1348142624 
H-#6-0.417000 13.2557601929 7.6295537949 4.4201211929 
H-#6-0.417000 11.184885025 3.889551878 -4.0099248886 
O-#6--0.834000 -4.2776837349 14.1175584793 7.6750407219 
H-#6-0.417000 -3.4368646145 14.4821300507 7.9513430595 
O-#6--0.834000 -4.3345994949 5.9868307114 -5.331905365 
H-#6-0.417000 -4.1225948334 6.8909125328 -5.0996947289 
H-#6-0.417000 -5.1792974472 5.8230986595 -4.9124894142 
O-#6--0.834000 -9.0310411453 8.332198143 0.0221936405 
H-#6-0.417000 -9.0870218277 7.9070310593 -0.8335701227 
H-#6-0.417000 -8.1928625107 8.7941884995 0.006265183 
O-#6--0.834000 4.4783091545 13.5152101517 4.1198678017 
H-#6-0.417000 4.6596193314 12.5916404724 3.9455749989 
H-#6-0.417000 5.3040823936 13.8623828888 4.457212925 
O-#6--0.834000 1.6157261133 13.4808883667 -5.5265388489 
H-#6-0.417000 2.2439031601 12.7798604965 -5.7002797127 
H-#6-0.417000 0.8358645439 13.23279953 -6.0230269432 
O-#6--0.834000 1.8066506386 0.0803085491 -6.8765063286 
H-#6-0.417000 2.5737519264 0.3158315718 -7.3983464241 
H-#6-0.417000 1.1636657715 -0.221989274 -7.5179257393 
O-#6--0.834000 -3.8350467682 0.5668844581 -0.7880951166 
H-#6-0.417000 -3.3305134773 0.1266752183 -1.4721233845 
H-#6-0.417000 -3.4832246304 1.4567956924 -0.7654748559 
O-#6--0.834000 -0.6647804379 12.2860927582 2.9760754108 
H-#6-0.417000 -0.1817064583 12.2186126709 2.1524744034 
H-#6-0.417000 -0.0695388615 12.7482709885 3.5662543774 
O-#6--0.834000 -5.6096196175 0.2196863294 2.6492958069 
H-#6-0.417000 -5.541870594 -0.7224800587 2.494489193 
H-#6-0.417000 -6.4738030434 0.4566573501 2.3127481937 
H-#6-0.417000 1.7653383017 11.6128511429 -8.2423610687 
O-#6--0.834000 -2.4955961704 11.079158783 4.4224452972 
H-#6-0.417000 -1.7449588776 11.4036893845 3.9249951839 
H-#6-0.417000 -2.8049821854 10.3228359222 3.92395854 
O-#6--0.834000 12.6735038757 5.6542577744 0.3242760599 
H-#6-0.417000 11.7921962738 5.3136539459 0.4776338637 
H-#6-0.417000 12.5438547134 6.4008173943 -0.2605933845 
O-#6--0.834000 9.6897096634 5.0653753281 0.6302791834 
H-#6-0.417000 9.5790328979 4.9407429695 1.5728555918 
H-#6-0.417000 9.3874454498 5.9592113495 0.4692662656 
O-#6--0.834000 11.8265380859 7.7053990364 -1.0713162422 
H-#6-0.417000 12.4500465393 8.4304876328 -1.112729907 
H-#6-0.417000 11.1298437119 7.952960968 -1.6792331934 
O-#6--0.834000 -0.5031808615 7.5216994286 -7.6995983124 
H-#6-0.417000 -1.066254735 6.7568907738 -7.8189649582 
H-#6-0.417000 0.3327111602 7.1605815887 -7.4044518471 
O-#6--0.834000 4.3649983406 11.0869503021 0.71495682 
H-#6-0.417000 3.57563591 10.905295372 0.2049167901 
H-#6-0.417000 4.6124544144 11.9772634506 0.4652756751 
O-#6--0.834000 6.7794837952 3.4869172573 -4.7186918259 
H-#6-0.417000 7.1273088455 4.3707199097 -4.8376164436 
H-#6-0.417000 7.5004839897 2.9963498116 -4.3240599632 
O-#6--0.834000 -6.9392642975 7.3062295914 8.6426973343 
H-#6-0.417000 -7.51821661 6.9305281639 9.3059434891 
H-#6-0.417000 -6.5404224396 6.5483422279 8.2151880264 
O-#6--0.834000 1.772952795 6.5719742775 -2.1992101669 
H-#6-0.417000 2.1623466015 5.7228450775 -2.4079813957 
H-#6-0.417000 1.5597814322 6.9540638924 -3.0505611897 
O-#6--0.834000 3.5954585075 4.7530908585 -3.0828158855 
H-#6-0.417000 3.9156177044 3.851639986 -3.0493962765 
H-#6-0.417000 2.9577012062 4.7549500465 -3.7966046333 
H-#6-0.417000 6.8604755402 11.9208927155 -6.8964290619 
O-#6--0.834000 -0.1400148273 2.1782047749 -5.0777916908 
H-#6-0.417000 0.6399599314 1.6239051819 -5.0528063774 
H-#6-0.417000 0.1670145243 3.0082166195 -5.4425473213 
O-#6--0.834000 2.3738892078 1.393197298 1.4184366465 
H-#6-0.417000 2.9812848568 1.9660921097 1.8865115643 
H-#6-0.417000 2.7287433147 0.5131593347 1.5443093777 
O-#6--0.834000 4.9639253616 8.1511068344 -5.7086262703 
H-#6-0.417000 5.5142817497 7.6579098701 -6.3169827461 
H-#6-0.417000 5.1893510818 9.0673046112 -5.8698592186 
O-#6--0.834000 -4.4960632324 4.26790905 5.7901563644 
H-#6-0.417000 -3.539951086 4.3001332283 5.7578520775 
H-#6-0.417000 -4.7757225037 4.5709791183 4.9263439178 
O-#6--0.834000 8.1901197433 -2.2334170341 -1.9527181387 
H-#6-0.417000 8.5342035294 -1.3959400654 -2.2633161545 
O-#6--0.834000 8.2897024155 4.7842350006 2.9814901352 
H-#6-0.417000 8.3074150085 5.2115526199 3.8378303051 
H-#6-0.417000 7.5353989601 5.1702365875 2.5362241268 
O-#6--0.834000 -7.0653977394 5.7009129524 -4.7330646515 
H-#6-0.417000 -7.4950919151 5.9024882317 -5.5643062592 
H-#6-0.417000 -7.0896134377 4.7457323074 -4.6758265495 
O-#6--0.834000 4.6443252563 3.2546949387 2.0777649879 
H-#6-0.417000 4.908308506 2.7867691517 2.8699712753 
H-#6-0.417000 5.40604496 3.7870650291 1.8484237194 
O-#6--0.834000 6.1532187462 -3.3223235607 6.4438042641 
H-#6-0.417000 5.4802103043 -2.6938948631 6.705280304 
H-#6-0.417000 5.8840255737 -3.6136903763 5.5726714134 
O-#6--0.834000 -6.0984759331 10.6407842636 -4.4516859055 
H-#6-0.417000 -5.844452858 11.4443407059 -3.9978117943 
H-#6-0.417000 -6.5691289902 10.9425458908 -5.2286405563 
O-#6--0.834000 -0.6427871585 1.1393964291 -2.1482684612 
H-#6-0.417000 0.2293833643 0.7477997541 -2.1952023506 
H-#6-0.417000 -1.2360398769 0.436447233 -2.4131188393 
O-#6--0.834000 1.9539598227 0.1921191961 -4.0329036713 
H-#6-0.417000 1.8989757299 -0.09851937 -4.9432544708 
H-#6-0.417000 2.6780400276 0.8181094527 -4.0241551399 
H-#6-0.417000 7.7700667381 -3.6395118237 3.1266379356 
O-#6--0.834000 2.7993233204 -0.7041800618 -1.7069693804 
H-#6-0.417000 2.5104398727 -0.5268142819 -2.6021347046 
H-#6-0.417000 2.0018734932 -0.6436165571 -1.1810045242 
O-#6--0.834000 0.8559015989 11.8894987106 0.5326260924 
H-#6-0.417000 0.1620111763 11.9742937088 -0.1212533116 
H-#6-0.417000 1.6456118822 12.1936941147 0.0853507221 
O-#6--0.834000 3.4132544994 11.5342540741 -5.7953538895 
H-#6-0.417000 3.8983881474 12.0998458862 -6.3961734772 
H-#6-0.417000 2.8922429085 10.9690771103 -6.3657517433 
O-#6--0.834000 0.5174608827 -2.7206442356 6.153637886 
H-#6-0.417000 0.4112913609 -2.2125763893 6.9578938484 
H-#6-0.417000 1.2208577394 -3.3389675617 6.3514790535 
O-#6--0.834000 5.9935660362 10.9740600586 -4.8535857201 
H-#6-0.417000 6.0842514038 11.4977359772 -4.0574879646 
H-#6-0.417000 5.0565485954 10.9934406281 -5.0481476784 
O-#6--0.834000 5.2526707649 -1.9001809359 -1.2915798426 
H-#6-0.417000 4.40020895 -1.5526784658 -1.5538465977 
H-#6-0.417000 5.8866410255 -1.2881668806 -1.6654149294 
O-#6--0.834000 4.5544013977 11.1147022247 11.0740909576 
H-#6-0.417000 3.8141570091 10.5980577469 10.755736351 
H-#6-0.417000 4.1652913094 11.9418535233 11.3580732346 
O-#6--0.834000 -1.3404985666 -4.9295578003 -0.424121201 
H-#6-0.417000 -0.4308086038 -4.6369347572 -0.3687295914 
H-#6-0.417000 0.239776805 17.7451152802 -0.2046179622 
O-#6--0.834000 2.8522562981 2.2618267536 9.5473279953 
H-#6-0.417000 1.905362606 2.3482322693 9.6575965881 
H-#6-0.417000 3.1760280132 2.0379195213 10.4198360443 
O-#6--0.834000 6.8549585342 2.8211932182 8.2108640671 
H-#6-0.417000 6.4761533737 1.9537312984 8.0685653687 
H-#6-0.417000 7.7789711952 2.6522986889 8.3950033188 
O-#6--0.834000 2.8345577717 2.5210783482 -1.5419458151 
H-#6-0.417000 2.1025691032 2.917794466 -2.014218092 
H-#6-0.417000 2.4672174454 2.274851799 -0.693025589 
O-#6--0.834000 -3.4815657139 -2.9283969402 5.2246570587 
H-#6-0.417000 -2.9303500652 -3.1104221344 4.4635653496 
H-#6-0.417000 -4.2238683701 -2.4379382133 4.8715715408 
O-#6--0.834000 -4.5755157471 3.0330536366 9.993806839 
H-#6-0.417000 -4.3452363014 2.1046564579 9.9579877853 
H-#6-0.417000 -5.2955064774 3.0776240826 10.6229801178 
O-#6--0.834000 -0.9908177853 8.9325027466 11.2612800598 
H-#6-0.417000 -0.229817003 8.7162771225 11.8001279831 
H-#6-0.417000 -0.6275262237 9.1127624512 10.3942403793 
O-#6--0.834000 10.6258535385 6.1978859901 -4.5295505524 
H-#6-0.417000 10.3170137405 7.0896935463 -4.369767189 
H-#6-0.417000 10.0075216293 5.6413435936 -4.0560956001 
O-#6--0.834000 -5.3409166336 -0.0295789558 5.3955430984 
H-#6-0.417000 -5.9897351265 -0.7307143807 5.45617342 
H-#6-0.417000 -5.2636737823 0.1454696506 4.4576601982 
O-#6--0.834000 7.7704515457 -0.3410975933 8.5928153992 
H-#6-0.417000 7.1776680946 -0.553342402 9.3137807846 
H-#6-0.417000 7.5334820747 -0.9557997584 7.8983950615 
O-#6--0.834000 5.7835431099 -0.7947329283 10.4503440857 
H-#6-0.417000 5.0814299583 -1.1138988733 9.8834199905 
O-#6--0.834000 4.2043886185 5.9156727791 -9.3420534134 
H-#6-0.417000 4.872982502 5.5764102936 -8.7469768524 
O-#6--0.834000 4.5791459084 11.3773708344 6.8190126419 
H-#6-0.417000 5.1324262619 11.757686615 6.136756897 
H-#6-0.417000 4.2353663445 12.1317825317 7.2974586487 
O-#6--0.834000 6.0211730003 9.5143976212 -8.372423172 
O-#6--0.834000 -6.5167746544 -0.0629879683 -1.4931250811 
H-#6-0.417000 -5.6761798859 0.3509860933 -1.2975275517 
H-#6-0.417000 -6.336991787 -1.0022636652 -1.4522404671 
H-#6-0.417000 7.6685972214 8.549996376 12.0005817413 
O-#6--0.834000 -0.9480906129 1.6958243847 4.0404424667 
H-#6-0.417000 -0.0425164588 1.5512192249 4.3147735596 
H-#6-0.417000 -0.8754982352 2.0895605087 3.1709976196 
O-#6--0.834000 9.4735383987 2.7227511406 -0.892691195 
H-#6-0.417000 10.1113262177 2.2278013229 -0.3784109056 
H-#6-0.417000 9.4436903 3.5831475258 -0.4742901623 
O-#6--0.834000 1.1334644556 14.6564741135 9.7969856262 
H-#6-0.417000 1.0144380331 13.7068634033 9.7794923782 
O-#6--0.834000 5.6106667519 14.1985845566 0.6200974584 
H-#6-0.417000 5.8254365921 14.0827007294 1.5456662178 
H-#6-0.417000 6.3911247253 14.6032648087 0.241479069 
O-#6--0.834000 -1.7095621824 8.4408283234 3.233219862 
H-#6-0.417000 -1.785410881 7.5151033401 3.4645452499 
H-#6-0.417000 -1.2037450075 8.82629776 3.9486181736 
H-#6-0.417000 -9.8685894012 8.4814224243 1.538444519 
O-#6--0.834000 11.1950187683 5.3544335365 6.1168589592 
H-#6-0.417000 11.467048645 4.7658205032 5.4127521515 
H-#6-0.417000 12.0084838867 5.5821418762 6.5670313835 
O-#6--0.834000 1.1137827635 8.3725805283 12.8975152969 
H-#6-0.417000 1.5074887276 7.542031765 13.1647539139 
H-#6-0.417000 1.6178120375 8.6408967972 12.1292743683 
O-#6--0.834000 4.3290057182 -0.9720390439 1.2373963594 
H-#6-0.417000 3.6072032452 -1.568936348 1.4347476959 
H-#6-0.417000 4.647049427 -1.2552222013 0.3801401854 
O-#6--0.834000 3.7399189472 9.6405830383 -3.1826581955 
H-#6-0.417000 3.6194250584 9.6941223145 -2.2345824242 
H-#6-0.417000 3.0346434116 10.1768836975 -3.5448746681 
O-#6--0.834000 -6.2314534187 -2.3939361572 0.570389092 
H-#6-0.417000 -5.493950367 -2.1201014519 0.0251045711 
O-#6--0.834000 6.3822803497 17.2349700928 2.2992887497 
H-#6-0.417000 7.1537356377 16.668384552 2.3076312542 
O-#6--0.834000 -0.7909042239 -0.8123520017 -5.5584807396 
H-#6-0.417000 -1.6744732857 -1.1553077698 -5.692343235 
H-#6-0.417000 -0.9175699949 -0.0197876226 -5.0369157791 
O-#6--0.834000 6.738278389 2.6662809849 11.2080249786 
H-#6-0.417000 6.9587779045 1.9621111155 11.8177433014 
H-#6-0.417000 6.6441679001 2.2298843861 10.3613052368 
O-#6--0.834000 -3.4453029633 -2.1243739128 0.2788821757 
H-#6-0.417000 -3.4391524792 -2.2931296825 -0.6633045673 
H-#6-0.417000 -3.2345762253 -1.1939663887 0.3574215174 
O-#6--0.834000 2.4820625782 6.9609036446 -7.1201405525 
H-#6-0.417000 2.9510190487 7.5991301537 -6.5825724602 
H-#6-0.417000 3.045055151 6.8299384117 -7.8831086159 
O-#6--0.834000 -1.6473923922 3.9979429245 5.4983849525 
H-#6-0.417000 -1.5438611507 3.0990784168 5.1860451698 
H-#6-0.417000 -1.157176733 4.0244340897 6.320101738 
O-#6--0.834000 -2.5663511753 16.6024284363 6.7364969254 
H-#6-0.417000 -1.7680312395 16.5082073212 7.2561507225 
O-#6--0.834000 12.5059690475 10.9692316055 1.8510745764 
H-#6-0.417000 11.8342504501 10.2924823761 1.7671909332 
H-#6-0.417000 12.0159502029 11.7743301392 2.0181958675 
O-#6--0.834000 7.1836428642 -3.5333189964 1.235003233 
H-#6-0.417000 7.6195082664 -2.7703473568 0.8553615808 
H-#6-0.417000 6.990020752 -4.0966200829 0.4857138693 
O-#6--0.834000 8.9032297134 4.6025562286 -2.8596894741 
H-#6-0.417000 7.9683766365 4.5407090187 -2.6635832787 
H-#6-0.417000 9.3136920929 3.9650924206 -2.2754013538 
O-#6--0.834000 2.8744587898 7.0645627975 7.3464174271 
H-#6-0.417000 3.4409880638 6.3018975258 7.2297167778 
H-#6-0.417000 2.912979126 7.5228319168 6.5069303513 
O-#6--0.834000 -5.812022686 12.3843631744 4.1515102386 
H-#6-0.417000 -5.0800461769 12.0161018372 3.6567120552 
H-#6-0.417000 -6.0936741829 13.1403961182 3.6364188194 
O-#6--0.834000 -3.040694952 1.576313138 -7.2783255577 
H-#6-0.417000 -3.0546922684 2.4830975533 -7.5845584869 
H-#6-0.417000 -3.3110833168 1.6284052134 -6.3615875244 
O-#6--0.834000 1.3596037626 -2.5799734592 -5.4332480431 
H-#6-0.417000 0.8583737016 -1.8155213594 -5.1493220329 
O-#6--0.834000 5.2006592751 10.8310699463 3.4871504307 
H-#6-0.417000 4.9912705421 10.7039175034 2.5618283749 
H-#6-0.417000 5.359161377 9.9480438232 3.820877552 
O-#6--0.834000 2.6459548473 16.4244403839 0.37957111 
H-#6-0.417000 2.4694795609 16.6864585876 1.2831389904 
H-#6-0.417000 2.3874900341 15.5035657883 0.3418980539 
O-#6--0.834000 3.3665168285 14.3792104721 -3.4710040092 
H-#6-0.417000 4.03444767 13.7334947586 -3.7015509605 
H-#6-0.417000 2.7385456562 14.3429937363 -4.1925115585 
O-#6--0.834000 -0.0593432039 2.7312526703 1.7156780958 
H-#6-0.417000 0.7466472387 2.2155797482 1.6893466711 
H-#6-0.417000 0.1895591021 3.5839583874 1.3590646982 
O-#6--0.834000 -5.6673622131 0.2526131868 9.0840339661 
H-#6-0.417000 -5.3085660934 -0.4597309232 8.5548238754 
O-#6--0.834000 11.2409000397 0.9499970078 0.4907900691 
H-#6-0.417000 11.977643013 1.113552928 -0.0980162993 
H-#6-0.417000 10.88260746 0.1114746779 0.1996899098 
O-#6--0.834000 8.3103151321 1.4469854832 -6.1280303001 
H-#6-0.417000 7.7960419655 0.6568859816 -6.2938585281 
H-#6-0.417000 7.8384962082 2.1413493156 -6.5878987312 
O-#6--0.834000 0.9286743999 18.1847190857 2.3348014355 
H-#6-0.417000 0.6666976213 17.2756671906 2.4804947376 
O-#6--0.834000 -7.4359416962 3.8923523426 4.8802018166 
H-#6-0.417000 -6.8954844475 3.5123074055 5.5728087425 
H-#6-0.417000 -7.8713974953 3.1416459084 4.4764070511 
O-#6--0.834000 5.5220093727 16.5099124908 6.9659290314 
H-#6-0.417000 5.2277960777 16.5938587189 6.0589427948 
H-#6-0.417000 5.9818525314 15.6708192825 6.9923729897 
O-#6--0.834000 0.1319007576 -3.3861207962 -3.0219759941 
H-#6-0.417000 0.5629301071 -3.2115476131 -3.8586182594 
H-#6-0.417000 4.7503509521 0.4424356818 -7.5764803886 
O-#6--0.834000 -8.1017856598 7.4888930321 3.3992099762 
H-#6-0.417000 -9.0345134735 7.6132588387 3.2237560749 
H-#6-0.417000 -7.8528213501 8.2496004105 3.9241609573 
O-#6--0.834000 -3.8475027084 9.0288124084 6.4582462311 
H-#6-0.417000 -4.6634693146 8.9606981277 6.9540195465 
H-#6-0.417000 -4.0835804939 8.7622728348 5.5697331429 
O-#6--0.834000 9.0889081955 13.7700128555 -3.5684533119 
H-#6-0.417000 8.3764286041 13.1510190964 -3.4089176655 
O-#6--0.834000 5.8118486404 0.0055170469 -3.6447944641 
H-#6-0.417000 5.3574786186 0.7586330771 -4.0224137306 
H-#6-0.417000 6.7030591965 0.3171959221 -3.4872140884 
O-#6--0.834000 -7.9976377487 3.0780234337 8.5489768982 
H-#6-0.417000 -7.3491382599 3.777579546 8.4695930481 
H-#6-0.417000 -7.5328679085 2.2876241207 8.274222374 
O-#6--0.834000 8.0609197617 5.4496154785 8.5000228882 
H-#6-0.417000 8.7951469421 4.8894696236 8.2482728958 
H-#6-0.417000 7.3186736107 4.8506007195 8.5805501938 
O-#6--0.834000 5.5660328865 2.1863715649 4.9265823364 
H-#6-0.417000 5.4547696114 1.5511021614 5.6338906288 
H-#6-0.417000 5.923140049 2.9636764526 5.3561210632 
O-#6--0.834000 -7.6453371048 11.5920038223 0.1881144047 
H-#6-0.417000 -7.2391738892 10.9058790207 0.7177336812 
H-#6-0.417000 -7.0019030571 12.3006238937 0.1789532006 
O-#6--0.834000 7.8367795944 8.1863059998 -1.1907683611 
H-#6-0.417000 7.4577174187 9.0645008087 -1.2270776033 
H-#6-0.417000 7.1089324951 7.6018095016 -1.4025094509 
O-#6--0.834000 9.1477880478 0.5756726265 -2.4405369759 
H-#6-0.417000 9.9575052261 0.5288401842 -2.9488651752 
H-#6-0.417000 9.183807373 1.4297983646 -2.0099513531 
O-#6--0.834000 -6.638610363 9.4452924728 -1.6922135353 
H-#6-0.417000 -6.8207855225 9.9938421249 -2.4551935196 
H-#6-0.417000 -6.6215977669 8.5525302887 -2.0370590687 
O-#6--0.834000 3.1850013733 -1.681112051 9.7287569046 
H-#6-0.417000 2.9326784611 -0.8685706854 10.1673259735 
O-#6--0.834000 -5.2925958633 -2.5502011776 3.2535614967 
H-#6-0.417000 -5.6716113091 -2.7081508636 2.3889040947 
O-#6--0.834000 6.0738887787 5.9813699722 1.8310281038 
H-#6-0.417000 6.0328402519 6.9142012596 2.0416769981 
H-#6-0.417000 5.4120335579 5.8597078323 1.1503093243 
O-#6--0.834000 -1.3917587996 15.1828241348 -1.1320716143 
H-#6-0.417000 -1.4726282358 16.0056152344 -1.6144703627 
H-#6-0.417000 -1.4359278679 15.4393472672 -0.2109434009 
O-#6--0.834000 5.6918492317 13.7387399673 8.1748056412 
H-#6-0.417000 5.8416194916 14.1273202896 9.0366678238 
H-#6-0.417000 4.7506046295 13.8337659836 8.0289936066 
H-#6-0.417000 -5.8983359337 9.4411211014 10.6970396042 
O-#6--0.834000 10.576169014 13.1486682892 2.3679871559 
H-#6-0.417000 9.7208976746 12.9353818893 2.7411518097 
H-#6-0.417000 10.4713697433 14.0333471298 2.0178554058 
O-#6--0.834000 -0.8286491632 -1.6782368422 3.9628479481 
H-#6-0.417000 -0.5630344152 -2.0843913555 4.7879052162 
H-#6-0.417000 -1.3245767355 -0.9028900862 4.2257652283 
O-#6--0.834000 2.9573149681 6.102865696 12.1426000595 
H-#6-0.417000 3.5993070602 5.5177469254 12.5447378159 
H-#6-0.417000 3.451624155 6.8962535858 11.9366235733 
O-#6--0.834000 0.419065237 15.7680425644 3.1979894638 
H-#6-0.417000 0.5247765779 15.8391885757 4.1466703415 
H-#6-0.417000 0.9866405129 15.0391893387 2.9472641945 
O-#6--0.834000 1.6718813181 17.0073108673 -2.6878900528 
H-#6-0.417000 1.6217329502 16.0624485016 -2.5431475639 
H-#6-0.417000 0.985065639 17.3723487854 -2.1299791336 
O-#6--0.834000 -3.8186588287 2.3203518391 2.8361616135 
H-#6-0.417000 -2.9978196621 1.9293761253 3.1354835033 
H-#6-0.417000 -4.3867812157 1.572765708 2.6501920223 
O-#6--0.834000 -3.2056632042 14.6333551407 4.2839884758 
H-#6-0.417000 -3.2001729012 14.8737411499 5.2104959488 
H-#6-0.417000 -4.0654096603 14.9121589661 3.9688105583 
O-#6--0.834000 1.7708917856 5.5168638229 9.3957328796 
H-#6-0.417000 2.0276966095 6.1613540649 8.7362508774 
H-#6-0.417000 2.0963964462 5.8755464554 10.2213392258 
O-#6--0.834000 6.5265288353 11.1993408203 8.9410200119 
H-#6-0.417000 6.136341095 11.9064359665 8.4272069931 
H-#6-0.417000 5.7822742462 10.7712888718 9.3642082214 
O-#6--0.834000 0.5776554942 9.5305566788 1.9035795927 
H-#6-0.417000 -0.3284136653 9.4716730118 2.2065713406 
H-#6-0.417000 0.6425471306 10.399974823 1.5084421635 
O-#6--0.834000 0.986546576 -1.2715767622 11.3779973984 
O-#6--0.834000 2.9594266415 13.7376680374 -0.4494638145 
H-#6-0.417000 3.7272212505 14.1875295639 -0.0968325436 
H-#6-0.417000 2.9645419121 13.9499292374 -1.3828185797 
O-#6--0.834000 -0.7794095874 12.5620651245 9.363650322 
H-#6-0.417000 -1.2896282673 12.275223732 8.6062660217 
H-#6-0.417000 -0.92905581 13.5063524246 9.4101324081 
O-#6--0.834000 -0.1286393255 15.5073223114 -4.9628429413 
H-#6-0.417000 0.5666546822 14.8649663925 -5.1048932076 
O-#6--0.834000 -2.3228142262 -1.7503780127 9.1646671295 
H-#6-0.417000 -1.4239054918 -1.7514380217 8.8357381821 
H-#6-0.417000 -1.1658662558 9.174697876 -9.0662946701 
O-#6--0.834000 -5.5597791672 15.3541603088 3.4411478043 
H-#6-0.417000 -5.8461856842 15.2910289764 2.5299847126 
O-#6--0.834000 7.2711343765 10.9470071793 -0.6973959804 
H-#6-0.417000 6.6663393974 10.8621788025 0.03966574 
H-#6-0.417000 8.1219587326 11.1136512756 -0.2917358279 
O-#6--0.834000 -8.036154747 8.1951332092 -4.1125392914 
H-#6-0.417000 -7.4885520935 7.4237780571 -4.2587409019 
O-#6--0.834000 -5.2350354195 12.5673732758 -2.3249931335 
H-#6-0.417000 -5.317091465 12.5349979401 -1.3718662262 
H-#6-0.417000 -5.6724944115 13.3809089661 -2.5760326385 
O-#6--0.834000 9.1641521454 13.2939500809 6.7360925674 
H-#6-0.417000 9.2427778244 12.4228658676 7.1250171661 
O-#6--0.834000 6.6682653427 13.8661661148 5.7437953949 
H-#6-0.417000 7.583486557 13.6957626343 5.9664301872 
H-#6-0.417000 6.2096400261 13.848449707 6.5837845802 
O-#6--0.834000 10.139957428 2.867631197 2.8624169827 
H-#6-0.417000 10.2855815887 2.2143657207 2.1781144142 
H-#6-0.417000 9.2712173462 3.2227470875 2.6742258072 
H-#6-0.417000 -3.2983391285 -0.4058088362 10.1799554825 
O-#6--0.834000 -3.0247955322 10.9294786453 -1.0629636049 
H-#6-0.417000 -2.9871585369 10.3561029434 -0.2974209189 
H-#6-0.417000 -3.9050145149 10.8005971909 -1.416285634 
O-#6--0.834000 2.1315948963 8.871963501 -0.4358075559 
H-#6-0.417000 1.4466158152 8.9141082764 0.2314704508 
H-#6-0.417000 1.8529683352 8.1681060791 -1.0216265917 
O-#6--0.834000 -5.8229107857 6.7807717323 -2.1721694469 
H-#6-0.417000 -5.9059243202 5.8271784782 -2.1714622974 
H-#6-0.417000 -5.9075365067 7.0297145844 -1.2517900467 
O-#6--0.834000 -2.5138137341 11.7986536026 7.124569416 
H-#6-0.417000 -2.6863238811 11.4452219009 6.2518954277 
H-#6-0.417000 -3.1949546337 11.4158258438 7.6774916649 
O-#6--0.834000 2.8941960335 9.4635591507 5.6919031143 